Generated POSCAR File                   
   1.00000000000000     
     6.5684088592110044    1.2589299477942342    0.0000000000000000
    -2.1894696197370003    6.2946497389711702    0.0000000000000000
     0.0000000000000000    0.0000000000000000   16.0000000000000000
   C    H 
    10     6
Direct
  0.7907971191284042  0.0438716444225581  0.4999999975497876
  0.1670236415241077  0.1769959270100533  0.4999999971263134
  0.5441069897318660  0.2900764013556420  0.4999999936924767
  0.9060597884948648  0.4060976244928312  0.5000000037104108
  0.6774398288570208  0.6666731602079896  0.4999999996247614
  0.5941274652732313  0.0932716019927155  0.4999999912565484
  0.9560902441443281  0.2092482851827760  0.5000000030754869
  0.3331310518135472  0.3222172173737534  0.5000000039407284
  0.7094089680732705  0.4554741542559193  0.5000000007325758
  0.8227025368922499  0.8326427135732871  0.5000000058976184
  0.4698959087641016  0.9682840394078132  0.4999999987549247
  0.1925872686411620  0.0192103695759526  0.4999999910664685
  0.9797862696343754  0.8066840423633159  0.5000000098805956
  0.0302937733627077  0.5310675575150942  0.4999999999988549
  0.3075155605672748  0.4800024899591849  0.5000000086645809
  0.5203314114989717  0.6926065919800272  0.4999999950278677
 
  0.00000000E+00  0.00000000E+00  0.00000000E+00
  0.00000000E+00  0.00000000E+00  0.00000000E+00
  0.00000000E+00  0.00000000E+00  0.00000000E+00
  0.00000000E+00  0.00000000E+00  0.00000000E+00
  0.00000000E+00  0.00000000E+00  0.00000000E+00
  0.00000000E+00  0.00000000E+00  0.00000000E+00
  0.00000000E+00  0.00000000E+00  0.00000000E+00
  0.00000000E+00  0.00000000E+00  0.00000000E+00
  0.00000000E+00  0.00000000E+00  0.00000000E+00
  0.00000000E+00  0.00000000E+00  0.00000000E+00
  0.00000000E+00  0.00000000E+00  0.00000000E+00
  0.00000000E+00  0.00000000E+00  0.00000000E+00
  0.00000000E+00  0.00000000E+00  0.00000000E+00
  0.00000000E+00  0.00000000E+00  0.00000000E+00
  0.00000000E+00  0.00000000E+00  0.00000000E+00
  0.00000000E+00  0.00000000E+00  0.00000000E+00
