Generated POSCAR File                   
   1.00000000000000     
    -0.0000000000000036   -7.4512638644793467    0.0000000000000000
    10.7843133778851641    3.7256319322396738    0.0000000000000000
     0.0000000000000000    0.0000000000000000   16.0000000000000000
   C    H 
    24     6
Direct
  0.2689904232146176  0.5349534914967151  0.4999999929575409
  0.4682878863294562  0.9329125276971197  0.5000000043045745
  0.5328500898039579  0.7325096170087306  0.5000000066216970
  0.5992922727740932  0.5349072196762918  0.4999999908141035
  0.6750123788475548  0.3370112486178130  0.4999999924704071
  0.7320603077085437  0.1307548949901047  0.4999999963764807
  0.7979696879143958  0.9328918398506971  0.5000000095092432
  0.8668477071739318  0.7328905733435960  0.5000000078404696
  0.9336330888376239  0.5339265584724089  0.4999999870332985
  0.9955308128927030  0.3370576332045587  0.4999999884092219
  0.2642298330754969  0.8648168133695080  0.5000000081670279
  0.3338769901169414  0.6668714579413830  0.4999999983009999
  0.4035065440384216  0.4736001177602489  0.4999999938247868
  0.5377817659287629  0.0627616502249282  0.4999999951710024
  0.5995697108870246  0.8658428873993742  0.5000000120866304
  0.6661787469402967  0.6668481481802431  0.4999999993005702
  0.7353162397179176  0.4668951243504935  0.4999999945880376
  0.8012600514828350  0.2690190421059242  0.4999999934021204
  0.8582496378323725  0.0627479895003447  0.5000000081346840
  0.9338601325818487  0.8647960252488431  0.5000000194820586
  0.0002619700211284  0.6672945892843813  0.4999999958412218
  0.0650191300474461  0.4669007889789825  0.4999999863689553
  0.1992525385511072  0.7329221695583215  0.5000000023238798
  0.1296415061619527  0.9260545135581424  0.5000000147995323
  0.0969677534838738  0.2870390294417078  0.4999999963304944
  0.3531757394065380  0.3729943390730810  0.4999999985545074
  0.5235883531472538  0.2869323455050861  0.4999999998839542
  0.4363207138214875  0.1127714194443641  0.4999999962897519
  0.1798368564057498  0.0266469795096214  0.5000000049889621
  0.0096767193262082  0.1128233098038720  0.5000000058237788
 
  0.00000000E+00  0.00000000E+00  0.00000000E+00
  0.00000000E+00  0.00000000E+00  0.00000000E+00
  0.00000000E+00  0.00000000E+00  0.00000000E+00
  0.00000000E+00  0.00000000E+00  0.00000000E+00
  0.00000000E+00  0.00000000E+00  0.00000000E+00
  0.00000000E+00  0.00000000E+00  0.00000000E+00
  0.00000000E+00  0.00000000E+00  0.00000000E+00
  0.00000000E+00  0.00000000E+00  0.00000000E+00
  0.00000000E+00  0.00000000E+00  0.00000000E+00
  0.00000000E+00  0.00000000E+00  0.00000000E+00
  0.00000000E+00  0.00000000E+00  0.00000000E+00
  0.00000000E+00  0.00000000E+00  0.00000000E+00
  0.00000000E+00  0.00000000E+00  0.00000000E+00
  0.00000000E+00  0.00000000E+00  0.00000000E+00
  0.00000000E+00  0.00000000E+00  0.00000000E+00
  0.00000000E+00  0.00000000E+00  0.00000000E+00
  0.00000000E+00  0.00000000E+00  0.00000000E+00
  0.00000000E+00  0.00000000E+00  0.00000000E+00
  0.00000000E+00  0.00000000E+00  0.00000000E+00
  0.00000000E+00  0.00000000E+00  0.00000000E+00
  0.00000000E+00  0.00000000E+00  0.00000000E+00
  0.00000000E+00  0.00000000E+00  0.00000000E+00
  0.00000000E+00  0.00000000E+00  0.00000000E+00
  0.00000000E+00  0.00000000E+00  0.00000000E+00
  0.00000000E+00  0.00000000E+00  0.00000000E+00
  0.00000000E+00  0.00000000E+00  0.00000000E+00
  0.00000000E+00  0.00000000E+00  0.00000000E+00
  0.00000000E+00  0.00000000E+00  0.00000000E+00
  0.00000000E+00  0.00000000E+00  0.00000000E+00
  0.00000000E+00  0.00000000E+00  0.00000000E+00
