Generated POSCAR File                   
   1.00000000000000     
    -4.3049639098426953   -7.4605643025059862    0.0000000000000000
    10.7624097746067520   -1.2434273837509946    0.0000000000000000
     0.0000000000000000    0.0000000000000000   16.0000000000000000
   C    H 
    26     6
Direct
  0.9575294193687256  0.2492222430066491  0.5000000003512497
  0.7298044831429991  0.6256278541082736  0.4999999955130363
  0.9158440946407254  0.4979212047698311  0.4999999903240493
  0.1023008211490719  0.3742707591558698  0.4999999920240796
  0.2915659617054587  0.2492340538832778  0.5000000053252265
  0.4778943056016089  0.1254460309593952  0.4999999875716910
  0.6736391295355517  0.0065098091891684  0.5000000208215454
  0.8541830511378237  0.8741963120131686  0.5000000057754406
  0.0342686325624939  0.7498238269237731  0.5000000036403449
  0.4169913440477586  0.4933385069750074  0.5000000211194475
  0.6037960792281680  0.3745727927602047  0.4999999985047765
  0.7921877592842890  0.2505431788090533  0.5000000006646914
  0.9791786462952885  0.1252173006593580  0.5000000058567764
  0.1459809377931194  0.1252257652953190  0.5000000014544312
  0.3327482761816825  0.0064165692623064  0.4999999787303580
  0.7154950912710873  0.7499753970300205  0.4999999969388327
  0.8955645207272340  0.6255973737802236  0.4999999949878173
  0.0761392464831232  0.4932930257106563  0.4999999785070699
  0.2718353142944423  0.3743187474993022  0.5000000120973453
  0.4581983477592360  0.2505502163314759  0.4999999942515814
  0.6474175188322420  0.1254958023604757  0.5000000079767659
  0.8339402484357805  0.0018936276604720  0.5000000098797912
  0.0199509177646533  0.8741658471129909  0.5000000048070632
  0.5819259736372473  0.4979768862068426  0.5000000040990358
  0.7706021744898095  0.3745839398563717  0.4999999947377063
  0.1678384973698144  0.0018268105839070  0.4999999958084445
  0.5894952234772930  0.7501026018886776  0.4999999929836676
  0.5636191280539009  0.9118157471740247  0.5000000121637100
  0.3480956630941066  0.9116787249256930  0.4999999865028570
  0.1602699254414972  0.7496804719487216  0.5000000067092074
  0.1861948638311191  0.5879632116337348  0.4999999868050509
  0.4016467254647011  0.5880783576594624  0.5000000130668951
 
  0.00000000E+00  0.00000000E+00  0.00000000E+00
  0.00000000E+00  0.00000000E+00  0.00000000E+00
  0.00000000E+00  0.00000000E+00  0.00000000E+00
  0.00000000E+00  0.00000000E+00  0.00000000E+00
  0.00000000E+00  0.00000000E+00  0.00000000E+00
  0.00000000E+00  0.00000000E+00  0.00000000E+00
  0.00000000E+00  0.00000000E+00  0.00000000E+00
  0.00000000E+00  0.00000000E+00  0.00000000E+00
  0.00000000E+00  0.00000000E+00  0.00000000E+00
  0.00000000E+00  0.00000000E+00  0.00000000E+00
  0.00000000E+00  0.00000000E+00  0.00000000E+00
  0.00000000E+00  0.00000000E+00  0.00000000E+00
  0.00000000E+00  0.00000000E+00  0.00000000E+00
  0.00000000E+00  0.00000000E+00  0.00000000E+00
  0.00000000E+00  0.00000000E+00  0.00000000E+00
  0.00000000E+00  0.00000000E+00  0.00000000E+00
  0.00000000E+00  0.00000000E+00  0.00000000E+00
  0.00000000E+00  0.00000000E+00  0.00000000E+00
  0.00000000E+00  0.00000000E+00  0.00000000E+00
  0.00000000E+00  0.00000000E+00  0.00000000E+00
  0.00000000E+00  0.00000000E+00  0.00000000E+00
  0.00000000E+00  0.00000000E+00  0.00000000E+00
  0.00000000E+00  0.00000000E+00  0.00000000E+00
  0.00000000E+00  0.00000000E+00  0.00000000E+00
  0.00000000E+00  0.00000000E+00  0.00000000E+00
  0.00000000E+00  0.00000000E+00  0.00000000E+00
  0.00000000E+00  0.00000000E+00  0.00000000E+00
  0.00000000E+00  0.00000000E+00  0.00000000E+00
  0.00000000E+00  0.00000000E+00  0.00000000E+00
  0.00000000E+00  0.00000000E+00  0.00000000E+00
  0.00000000E+00  0.00000000E+00  0.00000000E+00
  0.00000000E+00  0.00000000E+00  0.00000000E+00
