Generated POSCAR File
1.0
6.3899999999999997 1.2300000000000000 0.0000000000000000
-2.1299999999999990 6.1500000000000004 0.0000000000000000
0.0000000000000000 0.0000000000000000 16.0000000000000000
C H
10 6
Direct
0.7916666668750000 0.0416666666250000 0.5000000000000000
0.1666666668750001 0.1666666666250000 0.5000000000000000
0.5416666668750001 0.2916666666250000 0.5000000000000000
0.9166666668750001 0.4166666666250000 0.5000000000000000
0.6666666668749999 0.6666666666250000 0.5000000000000000
0.5833333331250000 0.0833333333750000 0.5000000000000000
0.9583333331249999 0.2083333333750000 0.5000000000000000
0.3333333331249999 0.3333333333750000 0.5000000000000000
0.7083333331249999 0.4583333333750000 0.5000000000000000
0.8333333331250001 0.8333333333750000 0.5000000000000000
0.4565668342857939 0.9565668339759437 0.5000000000000000
0.1965380628624956 1.0075690914623188 0.5000000000000000
-0.0092797484585226 0.7980788538941586 0.5000000000000000
0.0457941658495780 0.5412460317094356 0.5000000000000000
0.3033964601880458 0.4924067527104409 0.5000000000000000
0.5082820516740965 0.6985562569166179 0.5000000000000000
